p edge 50 125 5
v 8 2 5 6 7 18 19 23 49
v 8 1 11 14 29 34 41 45 50
v 9 12 17 30 32 35 39 40 44 46
v 13 9 10 13 15 16 20 21 27 31 36 38 43 48
v 12 3 4 8 22 24 25 26 28 33 37 42 47
e 1 8
e 1 15
e 1 17
e 1 43
e 2 13
e 2 15
e 2 23
e 2 32
e 2 35
e 3 12
e 3 13
e 3 24
e 3 27
e 3 43
e 4 6
e 4 11
e 4 29
e 4 31
e 4 34
e 4 35
e 4 40
e 4 43
e 5 20
e 5 22
e 5 30
e 5 35
e 5 40
e 5 46
e 6 10
e 6 11
e 6 24
e 6 28
e 6 35
e 6 39
e 6 41
e 7 10
e 7 32
e 7 33
e 7 42
e 7 49
e 7 50
e 8 9
e 8 21
e 8 27
e 8 29
e 8 30
e 8 31
e 9 14
e 9 47
e 10 13
e 10 26
e 10 36
e 10 38
e 10 42
e 10 46
e 11 16
e 11 18
e 11 36
e 11 49
e 12 28
e 12 39
e 12 43
e 13 28
e 13 39
e 13 43
e 14 16
e 14 23
e 14 24
e 14 34
e 14 36
e 14 48
e 15 17
e 15 21
e 15 37
e 16 35
e 16 46
e 17 22
e 17 35
e 17 48
e 18 43
e 19 44
e 20 21
e 20 48
e 20 49
e 21 44
e 22 42
e 23 41
e 24 25
e 24 41
e 25 27
e 25 31
e 26 33
e 26 37
e 26 39
e 26 44
e 27 32
e 27 33
e 27 35
e 28 32
e 30 36
e 30 41
e 30 47
e 30 48
e 31 45
e 31 47
e 32 43
e 32 46
e 32 47
e 34 49
e 35 45
e 35 50
e 36 37
e 36 42
e 36 44
e 36 48
e 39 43
e 40 43
e 40 49
e 40 50
e 42 49
e 43 45
e 43 49
e 44 48
e 45 47
e 46 50
